c 
c G(k,n,p) graph
c graph gen seed     : 421
c number of vertices : 25
c max number of edges: 500
c number of classes  : 2
c edge density       : 0.800000
c edge probability   : 1.600000
c data structure     : dense
c
c           Graph Stats
c number of vertices  : 25
c nonisolated vertices: 25
c number of edges     : 154
c edge density        : 0.513333
c max degree          : 14
c avg degree          : 12.32
c min degree          : 11
p col 25 154
e 1 2
e 1 5
e 1 7
e 1 8
e 1 9
e 1 10
e 1 13
e 1 14
e 1 18
e 1 22
e 1 25
e 2 3
e 2 4
e 2 6
e 2 11
e 2 12
e 2 15
e 2 16
e 2 17
e 2 19
e 2 20
e 2 21
e 2 23
e 2 24
e 3 5
e 3 7
e 3 8
e 3 9
e 3 10
e 3 13
e 3 14
e 3 18
e 3 22
e 3 25
e 4 5
e 4 7
e 4 8
e 4 9
e 4 10
e 4 13
e 4 14
e 4 18
e 4 22
e 4 25
e 5 6
e 5 11
e 5 12
e 5 15
e 5 16
e 5 17
e 5 19
e 5 20
e 5 21
e 5 23
e 5 24
e 6 7
e 6 8
e 6 9
e 6 10
e 6 13
e 6 14
e 6 18
e 6 22
e 6 25
e 7 11
e 7 12
e 7 15
e 7 16
e 7 17
e 7 19
e 7 20
e 7 21
e 7 23
e 7 24
e 8 11
e 8 12
e 8 15
e 8 16
e 8 17
e 8 19
e 8 20
e 8 21
e 8 23
e 8 24
e 9 11
e 9 12
e 9 15
e 9 16
e 9 17
e 9 19
e 9 20
e 9 21
e 9 23
e 9 24
e 10 11
e 10 12
e 10 15
e 10 16
e 10 17
e 10 19
e 10 20
e 10 21
e 10 23
e 10 24
e 11 13
e 11 14
e 11 18
e 11 22
e 11 25
e 12 13
e 12 14
e 12 18
e 12 22
e 12 25
e 13 15
e 13 16
e 13 17
e 13 19
e 13 20
e 13 21
e 13 23
e 13 24
e 14 15
e 14 16
e 14 17
e 14 19
e 14 20
e 14 21
e 14 23
e 14 24
e 15 18
e 15 22
e 15 25
e 16 18
e 16 22
e 16 25
e 17 18
e 17 22
e 17 25
e 18 19
e 18 20
e 18 21
e 18 23
e 18 24
e 19 22
e 19 25
e 20 22
e 20 25
e 21 22
e 21 25
e 22 23
e 22 24
e 23 25
e 24 25
